<number of tasks>
20

<cycle time>
1000

<order strength>
0,216


<task times>
1 218
2 261
3 37
4 167
5 68
6 125
7 199
8 174
9 137
10 138
11 83
12 164
13 76
14 152
15 117
16 175
17 354
18 134
19 145
20 42

<precedence relations>
1,5
2,7
3,6
3,10
4,8
4,9
5,12
6,11
7,12
10,13
10,14
11,15
12,16
13,17
15,19
16,18
17,20

<end>
